c turning on binary mode checking
c parsing input formula with 202048 variables and 780990 clauses
c finished parsing, read 2434960 bytes from proof file
c detected empty clause; start verification via backward checking
c 8748 of 780990 clauses in core                            
c 3033 of 96850 lemmas in core using 93558 resolution steps
c 0 RAT lemmas in core; 635 redundant literals in core lemmas
s VERIFIED
c verification time: 1.426 seconds
